8 8
2 2 1 12 2 12 2 7 12 8 12
2 2 3 22 4 22 2 7 18 8 18
2 2 3 18 4 18 2 7 14 8 14
2 2 5 32 6 32 2 7 14 8 14
2 2 1 18 2 18 2 5 36 6 36
3 2 3 26 4 26 2 5 38 6 38 2 7 12 8 12
3 2 1 20 2 20 2 3 18 4 18 2 5 26 6 26
3 2 1 22 2 22 2 3 18 4 18 2 7 16 8 16